title
1.
-5.280000000 3.520000000 5.280000000
-3.520000000 5.280000000 5.280000000
-5.280000000 5.280000000 3.520000000
1 3
Cartesian
-7.040000000 7.040000000 7.040000000    Al
-3.520000000 3.520000000 3.520000000    Ni_pv
-14.080000000 14.080000000 14.080000000    Ni_pv
-10.560000000 10.560000000 10.560000000    Ni_pv
